5 5
3 29 2 81 4 96 1 7 0 94
1 28 0 14 2 44 4 30 3 81
0 32 3 70 2 88 1 6 4 27
3 82 4 88 0 24 2 34 1 40
0 47 4 79 1 75 2 86 3 24
-1
0 2 4 5
0 1 5
0 1 2 4 5
0 1 4 5
0 3 4 5
-2
168 301 351
32 258
45 113 239 237
85 276 348
267 317 381

433 9
20 10 6 4 17
5 22 3 13 19
1 7 12 23 18
0 11 15 24 9
21 2 16 8 14
